NAME : XML100_3266_22
DIMENSION : 101
NB_CLUSTERS : 6
CLUSTERING_ALG : KMedoids
CLUSTERING_PARAMS : k(5)
CLUSTERS
1 0
2 4 5 19 26 27 32 38 42 63 72 75 76 78 82 100
3 2 7 10 12 20 25 28 40 45 49 54 57 64 66 67 68 71 79 81 83 84 85 88 89 90 94 97 99
4 3 9 13 14 16 21 23 24 30 33 34 39 43 46 51 55 56 58 59 62 74 86
5 11 15 17 48 53 60 70 77 80 91 92 93 96
6 1 6 8 18 22 29 31 35 36 37 41 44 47 50 52 61 65 69 73 87 95 98
EOF